language ESSENCE' 1.0
letting lastdx=95
letting cage be [
[8,6,12,0,0, 0,0, 0,0, 0,0],
[46,9,2,9,1,8,1,8,2,8,3],
[8,12,14,0,0, 0,0, 0,0, 0,0],
[7,6,1,0,0, 0,0, 0,0, 0,0],
[40,7,4,7,3,6,3,5,3,0,0],
[4,1,14,0,0, 0,0, 0,0, 0,0],
[40,3,11,4,11,4,12,3,12,0,0],
[12,9,10,0,0, 0,0, 0,0, 0,0],
[8,9,8,0,0, 0,0, 0,0, 0,0],
[30,9,13,9,14,9,15,10,15,0,0],
[32,8,10,7,10,7,11,8,11,0,0],
[8,8,4,0,0, 0,0, 0,0, 0,0],
[25,7,7,7,6,8,6,0,0, 0,0],
[16,11,13,0,0, 0,0, 0,0, 0,0],
[29,9,5,9,4,10,4,10,5,0,0],
[15,3,10,0,0, 0,0, 0,0, 0,0],
[24,2,10,1,10,1,11,0,0, 0,0],
[2,1,8,0,0, 0,0, 0,0, 0,0],
[35,14,4,15,4,16,4,16,5,16,6],
[8,13,9,0,0, 0,0, 0,0, 0,0],
[25,15,3,16,3,16,2,0,0, 0,0],
[6,3,8,0,0, 0,0, 0,0, 0,0],
[12,2,12,2,11,0,0, 0,0, 0,0],
[17,3,1,2,1,0,0, 0,0, 0,0],
[7,11,10,11,11,0,0, 0,0, 0,0],
[34,15,11,16,11,16,10,15,10,0,0],
[11,13,12,0,0, 0,0, 0,0, 0,0],
[12,12,13,0,0, 0,0, 0,0, 0,0],
[47,7,15,7,16,6,16,5,16,5,15],
[22,15,1,16,1,0,0, 0,0, 0,0],
[16,16,15,0,0, 0,0, 0,0, 0,0],
[37,5,5,5,4,4,4,3,4,0,0],
[15,15,8,15,7,0,0, 0,0, 0,0],
[10,5,12,0,0, 0,0, 0,0, 0,0],
[22,11,2,10,2,0,0, 0,0, 0,0],
[28,4,15,4,14,4,13,3,13,0,0],
[15,1,4,0,0, 0,0, 0,0, 0,0],
[27,13,7,13,8,12,8,11,8,0,0],
[41,14,9,15,9,16,9,16,8,16,7],
[33,11,9,12,9,12,10,0,0, 0,0],
[16,6,11,0,0, 0,0, 0,0, 0,0],
[4,11,5,0,0, 0,0, 0,0, 0,0],
[1,5,1,0,0, 0,0, 0,0, 0,0],
[26,1,5,2,5,2,4,0,0, 0,0],
[34,1,13,1,12,2,13,0,0, 0,0],
[4,16,13,0,0, 0,0, 0,0, 0,0],
[45,7,1,7,2,6,2,5,2,0,0],
[47,15,5,15,6,14,6,14,5,0,0],
[16,1,6,1,7,0,0, 0,0, 0,0],
[12,10,16,9,16,8,16,8,15,0,0],
[28,6,9,6,10,5,10,5,11,0,0],
[30,1,1,1,2,2,2,3,2,3,3],
[15,15,16,16,16,0,0, 0,0, 0,0],
[5,4,9,4,10,0,0, 0,0, 0,0],
[33,12,4,11,4,11,3,10,3,9,3],
[39,6,14,6,15,5,14,5,13,0,0],
[9,13,1,0,0, 0,0, 0,0, 0,0],
[19,14,7,14,8,0,0, 0,0, 0,0],
[7,12,15,0,0, 0,0, 0,0, 0,0],
[26,10,13,10,12,9,12,0,0, 0,0],
[14,2,3,1,3,0,0, 0,0, 0,0],
[28,1,9,2,9,3,9,0,0, 0,0],
[25,1,15,2,15,3,15,0,0, 0,0],
[16,1,16,0,0, 0,0, 0,0, 0,0],
[47,2,6,3,6,4,6,4,5,3,5],
[31,2,7,2,8,3,7,0,0, 0,0],
[8,2,14,3,14,0,0, 0,0, 0,0],
[33,2,16,3,16,4,16,0,0, 0,0],
[8,4,1,0,0, 0,0, 0,0, 0,0],
[20,4,2,4,3,0,0, 0,0, 0,0],
[42,4,8,5,8,5,9,6,8,0,0],
[33,6,4,6,5,7,5,8,5,0,0],
[13,6,13,7,13,0,0, 0,0, 0,0],
[9,7,8,0,0, 0,0, 0,0, 0,0],
[2,7,9,0,0, 0,0, 0,0, 0,0],
[16,8,7,0,0, 0,0, 0,0, 0,0],
[10,8,8,0,0, 0,0, 0,0, 0,0],
[31,8,9,9,9,10,9,0,0, 0,0],
[50,9,6,10,6,11,6,11,7,12,7],
[21,9,7,10,7,10,8,0,0, 0,0],
[3,9,11,0,0, 0,0, 0,0, 0,0],
[16,10,1,11,1,0,0, 0,0, 0,0],
[23,10,10,10,11,0,0, 0,0, 0,0],
[37,10,14,11,14,11,15,11,16,0,0],
[9,11,12,0,0, 0,0, 0,0, 0,0],
[12,12,1,12,2,0,0, 0,0, 0,0],
[34,12,3,13,3,14,3,0,0, 0,0],
[40,12,5,12,6,13,6,13,5,13,4],
[17,12,11,12,12,13,11,0,0, 0,0],
[4,13,2,0,0, 0,0, 0,0, 0,0],
[37,13,10,14,10,14,11,14,12,14,13],
[36,13,13,13,14,14,14,14,15,14,16],
[16,14,1,0,0, 0,0, 0,0, 0,0],
[13,14,2,15,2,0,0, 0,0, 0,0],
[6,15,12,16,12,0,0, 0,0, 0,0],
[47,15,13,15,14,15,15,16,14,0,0]
]
